
  22   10
  10   10   10   10   10   10   10   10   10   10

   0   0   0   0   0   0   0   0   0   0   0   1 2 
   9  10  10  10  10  10  10  10  10  10  10   1 3 
   6  10  10  10  10  10  10  10  10  10  10   1 4 
   2  10  10  10  10  10  10  10  10  10  10   1 5 
   1  10  10  10  10  10  10  10  10  10  10   1 6 
   3  10  10  10  10  10  10  10  10  10  10   1 7 
  10  10  10  10  10  10  10  10  10  10  10   1 8 
   8  10  10  10  10  10  10  10  10  10  10   1 9 
   2  10  10  10  10  10  10  10  10  10  10   1 10 
   3  10  10  10  10  10  10  10  10  10  10   1 11 
  10  10  10  10  10  10  10  10  10  10  10   1 12 
   2  10  10  10  10  10  10  10  10  10  10   1 13 
   9  10  10  10  10  10  10  10  10  10  10   1 14 
   4  10  10  10  10  10  10  10  10  10  10   1 15 
   7  10  10  10  10  10  10  10  10  10  10   2 18 16 
   8  10  10  10  10  10  10  10  10  10  10   1 17 
   1  10  10  10  10  10  10  10  10  10  10   2 21 19 
   3  10  10  10  10  10  10  10  10  10  10   2 21 19 
   9  10  10  10  10  10  10  10  10  10  10   1 20 
   7  10  10  10  10  10  10  10  10  10  10   1 22
   3  10  10  10  10  10  10  10  10  10  10   1 22
   0   0   0   0   0   0   0   0   0   0   0   0 
